GLPSOL--GLPK LP/MIP Solver 5.0
Parameter(s) specified in the command line:
 --lp ../modeles/3_134.lp --log 3_134.log
Reading problem data from '../modeles/3_134.lp'...
415 rows, 810 columns, 2823 non-zeros
402 integer variables, all of which are binary
1234 lines were read
GLPK Integer Optimizer 5.0
415 rows, 810 columns, 2823 non-zeros
402 integer variables, all of which are binary
Preprocessing...
402 constraint coefficient(s) were reduced
415 rows, 807 columns, 2820 non-zeros
402 integer variables, all of which are binary
Scaling...
 A: min|aij| =  8.911e-04  max|aij| =  4.000e+00  ratio =  4.489e+03
GM: min|aij| =  1.222e-01  max|aij| =  8.185e+00  ratio =  6.700e+01
EQ: min|aij| =  1.493e-02  max|aij| =  1.000e+00  ratio =  6.700e+01
2N: min|aij| =  1.426e-02  max|aij| =  1.726e+00  ratio =  1.211e+02
Constructing initial basis...
Size of triangular part is 415
Solving LP relaxation...
GLPK Simplex Optimizer 5.0
415 rows, 807 columns, 2820 non-zeros
      0: obj =   6.000000000e+00 inf =   1.450e+01 (7)
     50: obj =   3.737323080e-01 inf =   0.000e+00 (0)
*   149: obj =  -1.731534635e+00 inf =   2.897e-17 (0)
OPTIMAL LP SOLUTION FOUND
Integer optimization begins...
Long-step dual simplex will be used
+   149: mip =     not found yet >=              -inf        (1; 0)
+   296: >>>>>  -1.731534635e+00 >=  -1.731534635e+00   0.0% (146; 0)
+   296: mip =  -1.731534635e+00 >=     tree is empty   0.0% (0; 291)
INTEGER OPTIMAL SOLUTION FOUND
Time used:   0.1 secs
Memory used: 1.2 Mb (1298983 bytes)
